c Result of efficient AIG-to-CNF conversion using package CNF
p cnf 321 1069
2 298 3 6 -8 0
-2 -298 0
-2 8 0
-2 -6 0
-2 -3 0
-3 303 304 305 4 0
3 -4 0
3 -305 0
3 -303 0
3 -304 0
-4 296 297 302 5 0
4 -5 0
4 -302 0
4 -296 0
4 -297 0
-5 289 290 291 292 0
5 -292 0
5 -291 0
5 -289 0
5 -290 0
-6 299 300 301 7 0
6 -7 0
6 -301 0
6 -299 0
6 -300 0
-7 293 294 295 0
7 -293 0
7 -295 0
7 -294 0
-8 -9 0
-8 316 197 0
-8 12 197 0
8 9 -197 0
8 -316 9 -12 0
-9 306 307 10 11 0
9 -306 0
9 -11 0
9 -10 0
9 -307 0
-10 310 311 312 313 0
10 -313 0
10 -312 0
10 -310 0
10 -311 0
-11 308 309 314 315 0
11 -315 0
11 -314 0
11 -308 0
11 -309 0
-12 286 13 188 0
-12 13 176 188 0
12 -13 0
12 -188 0
12 -286 -176 0
-13 287 14 0
-13 285 164 0
-13 14 164 0
-13 285 287 0
13 -285 -14 0
13 -287 -164 0
14 -317 -128 0
14 317 -15 91 0
-14 317 15 0
-14 -317 128 0
-14 317 -91 0
-15 318 -319 65 0
-15 318 319 16 0
15 -318 0
15 -319 -65 0
15 319 -16 0
16 320 -17 0
16 -320 -45 0
-16 -320 45 0
-16 320 17 0
17 284 -18 33 0
17 -284 33 -44 0
-17 -33 0
-17 -284 44 0
-17 284 18 0
18 285 -19 0
18 -285 -26 0
-18 -285 26 0
-18 285 19 0
19 286 -20 0
19 -286 -23 0
-19 -286 23 0
-19 286 20 0
20 287 -21 0
20 -287 -22 0
-20 -287 22 0
-20 287 21 0
21 -270 -288 0
21 -269 288 0
-21 269 288 0
-21 270 -288 0
22 -272 -288 0
22 -271 288 0
-22 271 288 0
-22 272 -288 0
23 287 -24 0
23 -287 -25 0
-23 -287 25 0
-23 287 24 0
24 -274 -288 0
24 -273 288 0
-24 273 288 0
-24 274 -288 0
25 -276 -288 0
25 -275 288 0
-25 275 288 0
-25 276 -288 0
26 286 -27 0
26 -286 -30 0
-26 -286 30 0
-26 286 27 0
27 287 -28 0
27 -287 -29 0
-27 -287 29 0
-27 287 28 0
28 -278 -288 0
28 -277 288 0
-28 277 288 0
-28 278 -288 0
29 -280 -288 0
29 -279 288 0
-29 279 288 0
-29 280 -288 0
30 287 -31 0
30 -287 -32 0
-30 -287 32 0
-30 287 31 0
31 -282 -288 0
31 -281 288 0
-31 281 288 0
-31 282 -288 0
32 -284 -288 0
32 -283 288 0
-32 283 288 0
-32 284 -288 0
-33 34 40 42 43 0
33 -43 0
33 -34 0
33 -42 0
33 -40 0
-34 281 282 35 37 0
34 -281 0
34 -37 0
34 -35 0
34 -282 0
-35 273 279 280 36 0
35 -36 0
35 -280 0
35 -273 0
35 -279 0
-36 277 278 283 0
36 -277 0
36 -283 0
36 -278 0
-37 274 275 276 38 0
37 -38 0
37 -276 0
37 -274 0
37 -275 0
-38 269 270 39 0
38 -39 0
38 -270 0
38 -269 0
-39 265 266 271 272 0
39 -272 0
39 -271 0
39 -265 0
39 -266 0
-40 263 267 268 41 0
40 -41 0
40 -268 0
40 -263 0
40 -267 0
-41 261 262 0
41 -261 0
41 -262 0
-42 257 264 0
42 -257 0
42 -264 0
-43 258 259 260 0
43 -258 0
43 -260 0
43 -259 0
44 285 286 -287 0
-44 287 0
-44 -286 0
-44 -285 0
45 -284 33 -61 0
45 284 33 -46 0
-45 -33 0
-45 -284 61 0
-45 284 46 0
46 285 -47 0
46 -285 -54 0
-46 -285 54 0
-46 285 47 0
47 286 -48 0
47 -286 -51 0
-47 -286 51 0
-47 286 48 0
48 287 -49 0
48 -287 -50 0
-48 -287 50 0
-48 287 49 0
49 -269 -288 0
49 -268 288 0
-49 268 288 0
-49 269 -288 0
50 -271 -288 0
50 -270 288 0
-50 270 288 0
-50 271 -288 0
51 287 -52 0
51 -287 -53 0
-51 -287 53 0
-51 287 52 0
52 -273 -288 0
52 -272 288 0
-52 272 288 0
-52 273 -288 0
53 -275 -288 0
53 -274 288 0
-53 274 288 0
-53 275 -288 0
54 286 -55 0
54 -286 -58 0
-54 -286 58 0
-54 286 55 0
55 287 -56 0
55 -287 -57 0
-55 -287 57 0
-55 287 56 0
56 -277 -288 0
56 -276 288 0
-56 276 288 0
-56 277 -288 0
57 -279 -288 0
57 -278 288 0
-57 278 288 0
-57 279 -288 0
58 287 -59 0
58 -287 -60 0
-58 -287 60 0
-58 287 59 0
59 -281 -288 0
59 -280 288 0
-59 280 288 0
-59 281 -288 0
60 -283 -288 0
60 -282 288 0
-60 282 288 0
-60 283 -288 0
61 285 -62 0
-61 -285 0
-61 62 0
62 286 -63 0
-62 -286 0
-62 63 0
63 -286 -287 0
63 287 -64 0
63 -287 -288 0
-63 287 64 0
-63 286 -287 288 0
64 -285 -288 0
64 -284 288 0
-64 284 288 0
-64 285 -288 0
65 320 -66 0
65 -320 -79 0
-65 -320 79 0
-65 320 66 0
66 -284 33 -75 0
66 284 33 -67 0
-66 -33 0
-66 -284 75 0
-66 284 67 0
67 285 -68 0
67 -285 -72 0
-67 -285 72 0
-67 285 68 0
68 286 -69 0
68 -286 -71 0
-68 -286 71 0
-68 286 69 0
69 -287 -21 0
69 287 -70 0
-69 287 70 0
-69 -287 21 0
70 -268 -288 0
70 -267 288 0
-70 267 288 0
-70 268 -288 0
71 287 -22 0
71 -287 -24 0
-71 -287 24 0
-71 287 22 0
72 286 -73 0
72 -286 -74 0
-72 -286 74 0
-72 286 73 0
73 287 -25 0
73 -287 -28 0
-73 -287 28 0
-73 287 25 0
74 287 -29 0
74 -287 -31 0
-74 -287 31 0
-74 287 29 0
75 285 -76 0
-75 -285 0
-75 76 0
76 286 -77 0
76 -286 287 -288 0
-76 -286 -287 0
-76 286 77 0
-76 -286 288 0
77 287 -32 0
77 -287 -78 0
-77 -287 78 0
-77 287 32 0
78 -286 -288 0
78 -285 288 0
-78 285 288 0
-78 286 -288 0
79 -284 33 -88 0
79 284 33 -80 0
-79 -33 0
-79 -284 88 0
-79 284 80 0
80 285 -81 0
80 -285 -85 0
-80 -285 85 0
-80 285 81 0
81 286 -82 0
81 -286 -84 0
-81 -286 84 0
-81 286 82 0
82 -287 -49 0
82 287 -83 0
-82 287 83 0
-82 -287 49 0
83 -267 -288 0
83 -266 288 0
-83 266 288 0
-83 267 -288 0
84 287 -50 0
84 -287 -52 0
-84 -287 52 0
-84 287 50 0
85 286 -86 0
85 -286 -87 0
-85 -286 87 0
-85 286 86 0
86 287 -53 0
86 -287 -56 0
-86 -287 56 0
-86 287 53 0
87 287 -57 0
87 -287 -59 0
-87 -287 59 0
-87 287 57 0
88 285 -89 0
-88 -285 0
-88 89 0
89 286 -90 0
89 -286 287 288 0
-89 -286 -287 0
-89 286 90 0
-89 -286 -288 0
90 287 -60 0
90 -287 -64 0
-90 -287 64 0
-90 287 60 0
91 -318 -319 110 0
91 -318 319 92 0
-91 318 0
-91 -319 -110 0
-91 319 -92 0
92 320 -93 0
92 -320 -102 0
-92 -320 102 0
-92 320 93 0
93 -284 33 -99 0
93 284 33 -94 0
-93 -33 0
-93 -284 99 0
-93 284 94 0
94 285 -95 0
94 -285 -98 0
-94 -285 98 0
-94 285 95 0
95 -286 -20 0
95 286 -96 0
-95 286 96 0
-95 -286 20 0
96 -287 -70 0
96 287 -97 0
-96 287 97 0
-96 -287 70 0
97 -266 -288 0
97 -265 288 0
-97 265 288 0
-97 266 -288 0
98 286 -23 0
98 -286 -27 0
-98 -286 27 0
-98 286 23 0
99 285 -100 0
-99 -285 0
-99 100 0
100 286 -30 0
100 -286 -101 0
-100 -286 101 0
-100 286 30 0
-101 286 287 -288 0
-101 285 287 288 0
101 -287 0
101 -285 288 0
101 -286 -288 0
102 -284 33 -108 0
102 284 33 -103 0
-102 -33 0
-102 -284 108 0
-102 284 103 0
103 285 -104 0
103 -285 -107 0
-103 -285 107 0
-103 285 104 0
104 -286 -48 0
104 286 -105 0
-104 286 105 0
-104 -286 48 0
105 -287 -83 0
105 287 -106 0
-105 287 106 0
-105 -287 83 0
106 -265 -288 0
106 -264 288 0
-106 264 288 0
-106 265 -288 0
107 286 -51 0
107 -286 -55 0
-107 -286 55 0
-107 286 51 0
108 285 -109 0
-108 -285 0
-108 109 0
109 -286 -287 0
109 286 -58 0
109 -286 -64 0
-109 286 58 0
-109 -286 287 64 0
110 320 -111 0
110 -320 -120 0
-110 -320 120 0
-110 320 111 0
111 -284 33 -117 0
111 284 33 -112 0
-111 -33 0
-111 -284 117 0
-111 284 112 0
-112 285 113 0
-112 -285 116 0
112 -285 -116 0
112 285 -113 0
-113 286 114 0
-113 -286 69 0
113 -286 -69 0
113 286 -114 0
114 -287 -97 0
114 287 -115 0
-114 287 115 0
-114 -287 97 0
115 -264 -288 0
115 -263 288 0
-115 263 288 0
-115 264 -288 0
116 286 -71 0
116 -286 -73 0
-116 -286 73 0
-116 286 71 0
117 285 -119 0
117 -285 286 -118 0
-117 -285 -286 0
-117 285 119 0
-117 -285 118 0
118 287 -288 0
-118 -287 0
-118 288 0
119 286 -74 0
119 -286 -77 0
-119 -286 77 0
-119 286 74 0
120 -284 33 -126 0
120 284 33 -121 0
-120 -33 0
-120 -284 126 0
-120 284 121 0
121 285 -122 0
121 -285 -125 0
-121 -285 125 0
-121 285 122 0
122 -286 -82 0
122 286 -123 0
-122 286 123 0
-122 -286 82 0
123 -287 -106 0
123 287 -124 0
-123 287 124 0
-123 -287 106 0
124 -263 -288 0
124 -262 288 0
-124 262 288 0
-124 263 -288 0
125 286 -84 0
125 -286 -86 0
-125 -286 86 0
-125 286 84 0
126 285 -127 0
-126 -285 0
-126 127 0
127 286 -87 0
127 -286 -90 0
-127 -286 90 0
-127 286 87 0
128 318 -129 0
128 -318 319 -157 0
-128 -318 -319 0
-128 318 129 0
-128 -318 157 0
129 319 -130 0
129 -319 -144 0
-129 -319 144 0
-129 319 130 0
130 320 -131 0
130 -320 -138 0
-130 -320 138 0
-130 320 131 0
131 -284 33 -136 0
131 284 33 -132 0
-131 -33 0
-131 -284 136 0
-131 284 132 0
-132 -285 19 0
-132 285 133 0
132 -285 -19 0
132 285 -133 0
-133 286 134 0
-133 -286 96 0
133 -286 -96 0
133 286 -134 0
134 -287 -115 0
134 287 -135 0
-134 287 135 0
-134 -287 115 0
135 -262 -288 0
135 -261 288 0
-135 261 288 0
-135 262 -288 0
136 285 -26 0
136 -285 -137 0
-136 -285 137 0
-136 285 26 0
137 286 -287 0
137 -285 286 288 0
-137 -286 0
-137 287 -288 0
-137 285 287 0
138 -284 33 -143 0
138 284 33 -139 0
-138 -33 0
-138 -284 143 0
-138 284 139 0
-139 -285 47 0
-139 285 140 0
139 -285 -47 0
139 285 -140 0
-140 -286 105 0
-140 286 141 0
140 -286 -105 0
140 286 -141 0
-141 287 142 0
-141 -287 124 0
141 -287 -124 0
141 287 -142 0
142 -261 -288 0
142 -260 288 0
-142 260 288 0
-142 261 -288 0
143 285 -54 0
143 -285 -62 0
-143 -285 62 0
-143 285 54 0
144 320 -145 0
144 -320 -151 0
-144 -320 151 0
-144 320 145 0
145 -284 33 -150 0
145 284 33 -146 0
-145 -33 0
-145 -284 150 0
-145 284 146 0
-146 -285 68 0
-146 285 147 0
146 -285 -68 0
146 285 -147 0
-147 -286 114 0
-147 286 148 0
147 -286 -114 0
147 286 -148 0
-148 287 149 0
-148 -287 135 0
148 -287 -135 0
148 287 -149 0
149 -260 -288 0
149 -259 288 0
-149 259 288 0
-149 260 -288 0
150 285 -72 0
150 -285 -76 0
-150 -285 76 0
-150 285 72 0
151 -284 33 -156 0
151 284 33 -152 0
-151 -33 0
-151 -284 156 0
-151 284 152 0
-152 -285 81 0
-152 285 153 0
152 -285 -81 0
152 285 -153 0
-153 -286 123 0
-153 286 154 0
153 -286 -123 0
153 286 -154 0
-154 287 155 0
-154 -287 142 0
154 -287 -142 0
154 287 -155 0
155 -259 -288 0
155 -258 288 0
-155 258 288 0
-155 259 -288 0
156 285 -85 0
156 -285 -89 0
-156 -285 89 0
-156 285 85 0
157 320 -158 0
-157 -320 0
-157 158 0
158 -284 33 -163 0
158 284 33 -159 0
-158 -33 0
-158 -284 163 0
-158 284 159 0
-159 -285 95 0
-159 285 160 0
159 -285 -95 0
159 285 -160 0
-160 -286 134 0
-160 286 161 0
160 -286 -134 0
160 286 -161 0
-161 287 162 0
-161 -287 149 0
161 -287 -149 0
161 287 -162 0
162 -258 -288 0
162 -257 288 0
-162 257 288 0
-162 258 -288 0
163 285 -98 0
163 -285 -100 0
-163 -285 100 0
-163 285 98 0
164 317 -165 0
164 -317 -174 175 0
-164 -317 174 0
-164 317 165 0
-164 -317 -175 0
165 318 -166 0
165 -318 -173 0
-165 -318 173 0
-165 318 166 0
166 -319 -16 0
166 319 -167 0
-166 319 167 0
-166 -319 16 0
167 320 -168 0
167 -320 -171 0
-167 -320 171 0
-167 320 168 0
168 -284 33 -170 0
168 284 33 -169 0
-168 -33 0
-168 -284 170 0
-168 284 169 0
169 285 -116 0
169 -285 -119 0
-169 -285 119 0
-169 285 116 0
170 285 286 287 -288 0
-170 288 0
-170 -287 0
-170 -285 0
-170 -286 0
171 285 -125 172 0
171 -285 -127 172 0
-171 -172 0
-171 -285 127 0
-171 285 125 0
-172 284 33 0
172 -284 0
172 -33 0
173 319 -65 0
173 -319 -92 0
-173 -319 92 0
-173 319 65 0
-174 318 -319 130 0
-174 318 319 110 0
174 -318 0
174 -319 -130 0
174 319 -110 0
175 -318 -319 157 0
175 -318 319 144 0
-175 318 0
-175 -319 -157 0
-175 319 -144 0
176 -317 -183 0
176 317 -177 180 0
-176 317 177 0
-176 -317 183 0
-176 317 -180 0
-177 318 -319 179 0
-177 318 319 178 0
177 -318 0
177 -319 -179 0
177 319 -178 0
178 -320 -17 0
178 320 -171 0
-178 320 171 0
-178 -320 17 0
179 320 -45 0
179 -320 -66 0
-179 -320 66 0
-179 320 45 0
180 -318 -319 182 0
180 -318 319 181 0
-180 318 0
-180 -319 -182 0
-180 319 -181 0
181 320 -79 0
181 -320 -93 0
-181 -320 93 0
-181 320 79 0
182 320 -102 0
182 -320 -111 0
-182 -320 111 0
-182 320 102 0
183 318 -184 0
183 -318 319 -187 0
-183 -318 -319 0
-183 318 184 0
-183 -318 187 0
184 319 -185 0
184 -319 -186 0
-184 -319 186 0
-184 319 185 0
185 320 -120 0
185 -320 -131 0
-185 -320 131 0
-185 320 120 0
186 320 -138 0
186 -320 -145 0
-186 -320 145 0
-186 320 138 0
187 320 -151 0
187 -320 -158 0
-187 -320 158 0
-187 320 151 0
188 -288 -317 -194 0
188 -288 317 -189 0
-188 288 0
-188 -317 194 0
-188 317 189 0
189 318 -190 0
189 -318 -193 0
-189 -318 193 0
-189 318 190 0
190 -319 -178 0
190 319 -191 0
-190 319 191 0
-190 -319 178 0
191 -320 -168 0
191 320 -192 0
-191 320 192 0
-191 -320 168 0
192 285 -107 172 0
192 -285 -109 172 0
-192 -172 0
-192 -285 109 0
-192 285 107 0
193 319 -179 0
193 -319 -181 0
-193 -319 181 0
-193 319 179 0
194 318 -195 0
194 -318 -196 0
-194 -318 196 0
-194 318 195 0
195 319 -182 0
195 -319 -185 0
-195 -319 185 0
-195 319 182 0
196 319 -186 0
196 -319 -187 0
-196 -319 187 0
-196 319 186 0
-197 -316 251 0
-197 -198 251 0
-197 226 251 0
197 -251 0
197 316 198 -226 0
198 -317 199 215 223 0
-198 -199 0
-198 -223 0
-198 317 0
-198 -215 0
-199 200 -214 0
-199 200 211 0
-199 287 200 0
199 -200 0
199 -287 -211 214 0
200 -285 -318 -208 0
200 -285 318 -201 0
-200 285 0
-200 -318 208 0
-200 318 201 0
201 319 -202 0
201 -319 -205 0
-201 -319 205 0
-201 319 202 0
202 320 -203 0
202 -320 -204 0
-202 -320 204 0
-202 320 203 0
203 -136 172 0
-203 136 0
-203 -172 0
204 -143 172 0
-204 143 0
-204 -172 0
205 320 -206 0
205 -320 -207 0
-205 -320 207 0
-205 320 206 0
206 -150 172 0
-206 150 0
-206 -172 0
207 -156 172 0
-207 156 0
-207 -172 0
208 -319 -167 0
208 319 -209 0
-208 319 209 0
-208 -319 167 0
209 -320 -192 0
209 320 -210 0
-209 320 210 0
-209 -320 192 0
210 -163 172 0
-210 163 0
-210 -172 0
-211 318 -319 202 0
-211 318 319 212 0
211 -318 0
211 -319 -202 0
211 319 -212 0
212 320 -213 0
-212 -320 0
-212 213 0
213 -117 172 0
-213 117 0
-213 -172 0
214 -318 -319 209 0
214 -318 319 205 0
-214 318 0
-214 -319 -209 0
-214 319 -205 0
215 -288 -318 -220 0
215 -288 318 -216 0
-215 288 0
-215 -318 220 0
-215 318 216 0
216 319 -217 0
216 -319 -219 0
-216 -319 219 0
-216 319 217 0
217 -320 -213 0
217 320 -218 0
-217 320 218 0
-217 -320 213 0
218 -108 172 0
-218 108 0
-218 -172 0
219 -320 -203 0
-219 320 0
-219 203 0
220 319 -221 0
220 -319 -222 0
-220 -319 222 0
-220 319 221 0
221 320 -204 0
221 -320 -206 0
-221 -320 206 0
-221 320 204 0
222 320 -207 0
222 -320 -210 0
-222 -320 210 0
-222 320 207 0
223 -286 -318 -225 0
223 -286 318 -224 0
-223 286 0
-223 -318 225 0
-223 318 224 0
224 319 -219 0
224 -319 -221 0
-224 -319 221 0
-224 319 219 0
225 -319 -191 0
225 319 -222 0
-225 319 222 0
-225 -319 191 0
-226 227 238 244 248 0
226 -248 0
226 -244 0
226 -227 0
226 -238 0
-227 285 317 0
-227 317 228 235 0
227 -317 0
227 -285 -235 0
227 -285 -228 0
228 318 319 -232 0
228 318 -319 -229 0
-228 -318 0
-228 -319 229 0
-228 319 232 0
229 320 -230 0
229 -320 -231 0
-229 -320 231 0
-229 320 230 0
230 -75 172 0
-230 75 0
-230 -172 0
231 -88 172 0
-231 88 0
-231 -172 0
232 320 -233 0
232 -320 -234 0
-232 -320 234 0
-232 320 233 0
233 285 286 -287 172 0
-233 -285 0
-233 -172 0
-233 287 0
-233 -286 0
234 -61 172 0
-234 61 0
-234 -172 0
235 -318 319 -236 0
235 -318 -319 -212 0
-235 318 0
-235 -319 212 0
-235 319 236 0
236 -320 -218 0
236 320 -237 0
-236 320 237 0
-236 -320 218 0
237 -99 172 0
-237 99 0
-237 -172 0
238 -286 -318 -242 0
238 -286 318 -239 0
-238 286 0
-238 -318 242 0
-238 318 239 0
239 319 -240 0
239 -319 -241 0
-239 -319 241 0
-239 319 240 0
240 -320 -233 0
-240 320 0
-240 233 0
241 -320 -230 0
241 320 -234 0
-241 320 234 0
-241 -320 230 0
242 -319 -217 0
242 319 -243 0
-242 319 243 0
-242 -319 217 0
243 320 -231 0
243 -320 -237 0
-243 -320 237 0
-243 320 231 0
244 -287 -318 -247 0
244 -287 318 -245 0
-244 287 0
-244 -318 247 0
-244 318 245 0
-245 319 -320 0
-245 -319 232 0
-245 319 246 0
245 -319 -232 0
245 319 320 -246 0
246 -170 172 0
-246 170 0
-246 -172 0
247 319 -229 0
247 -319 -236 0
-247 -319 236 0
-247 319 229 0
248 -288 -318 -250 0
248 -288 318 -249 0
-248 288 0
-248 -318 250 0
-248 318 249 0
-249 320 0
-249 -319 233 0
-249 319 246 0
249 319 -320 -246 0
249 -319 -320 -233 0
250 319 -241 0
250 -319 -243 0
-250 -319 243 0
-250 319 241 0
251 -284 -316 -255 0
251 -284 316 -252 0
-251 284 0
-251 -316 255 0
-251 316 252 0
-252 317 253 0
-252 -317 254 0
252 -317 -254 0
252 317 -253 0
-253 318 250 0
-253 -318 216 0
253 -318 -216 0
253 318 -250 0
254 -318 -190 0
254 318 -220 0
-254 318 220 0
-254 -318 190 0
255 317 -256 0
255 -317 318 -196 0
-255 -317 -318 0
-255 317 256 0
-255 -317 196 0
256 318 -193 0
256 -318 -195 0
-256 -318 195 0
-256 318 193 0
-321 0
2 0

